# Solution for model GasLib-40
# Objective value = 5.5083205481473172e+01
loadshed[innode_1] 0
loadshed[innode_2] 0
loadshed[innode_3] 0
loadshed[innode_4] 0
loadshed[innode_5] 0
loadshed[innode_6] 0
loadshed[innode_7] 0
loadshed[innode_8] 0
loadshed[source_1] -3.9439131387954296e-02
loadshed[source_2] 1.1507685266468604e-01
loadshed[source_3] 2.7279107684895076e-01
loadshed[sink_1] 4.3942339660342811e-01
loadshed[sink_2] 0
loadshed[sink_3] 0
loadshed[sink_4] 0
loadshed[sink_5] 0
loadshed[sink_6] 0
loadshed[sink_7] 0
loadshed[sink_8] 0
loadshed[sink_9] 5.7784794551685170e-02
loadshed[sink_10] 0
loadshed[sink_11] 0
loadshed[sink_12] 1
loadshed[sink_13] 0
loadshed[sink_14] 0
loadshed[sink_15] 0
loadshed[sink_16] 0
loadshed[sink_17] 0
loadshed[sink_18] 0
loadshed[sink_19] 0
loadshed[sink_20] 0
loadshed[sink_21] 1
loadshed[sink_22] 0
loadshed[sink_23] 0
loadshed[sink_24] 8.7093685739356419e-01
loadshed[sink_25] 0
loadshed[sink_26] 0
loadshed[sink_27] 0
loadshed[sink_28] 0
loadshed[sink_29] 0
flow[source_1,sink_3] 1.6432522101421375e+02
flow[innode_1,sink_16] 1.6354166666666970e+01
flow[innode_6,sink_13] -4.8549399676116423e-01
flow[sink_13,sink_14] -1.6839660663427832e+01
flow[sink_14,sink_10] -33.1938273300945
flow[sink_25,sink_26] 1.1580988216353228e+02
flow[sink_26,sink_9] 0
flow[sink_9,sink_18] -1.5409144505769317e+01
flow[sink_26,sink_4] 9.9455715496865707e+01
flow[sink_4,sink_20] -4.1711079021661021e+01
flow[sink_18,sink_6] -3.1763311172435984e+01
flow[sink_25,innode_8] -1.3161688768087740e+02
flow[sink_6,sink_7] -7.3639407707150724e+01
flow[sink_6,sink_22] 2.5521929868048105e+01
flow[sink_7,sink_24] 2.1107201447094206e+00
flow[sink_22,sink_1] 9.1677632013814367e+00
flow[sink_24,sink_21] 0
flow[sink_21,sink_12] 0
flow[sink_7,sink_5] -9.2104294518526785e+01
flow[sink_5,sink_17] -1.0845846118519346e+02
flow[sink_17,sink_4] -1.2481262785186013e+02
flow[sink_17,sink_8] 0
flow[sink_3,sink_23] 16.3541666666697
flow[sink_8,sink_20] -1.6354166666668334e+01
flow[sink_25,sink_20] 7.4419412354996069e+01
flow[sink_25,sink_15] -7.4481079507557254e+01
flow[sink_15,sink_29] -5.2023491827952576e+01
flow[sink_29,sink_28] 1.6354166666667879e+01
flow[sink_29,sink_2] 5.5165921012938014e+01
flow[sink_2,sink_15] 3.8811754346271343e+01
flow[sink_29,innode_7] -1.3989774617422515e+02
flow[innode_4,sink_19] 4.4389524712362991e+01
flow[sink_19,innode_3] 4.0140740533317029e+01
flow[innode_4,innode_5] 7.0575135951065036e+01
flow[sink_27,innode_5] -7.0575135951065036e+01
flow[sink_27,sink_19] 5.4220969284398365e+01
flow[sink_10,sink_11] 3.2708333333333641e+01
flow[sink_10,innode_2] -4.2115586796777777e+01
flow[sink_10,innode_3] -4.0140740533317029e+01
flow[innode_6,sink_25] 4.8549399676116423e-01
flow[sink_11,innode_1] 1.6354166666666970e+01
flow[sink_19,innode_2] 4.2115586796777777e+01
flow[source_3,innode_4] 1.1496466066342802e+02
flow[source_2,innode_7] 1.3989774617422515e+02
flow[sink_3,innode_8] 1.3161688768087740e+02
pressure[innode_1] 76.837233235865
pressure[innode_2] 7.9214917248748563e+01
pressure[innode_3] 7.9126030124283261e+01
pressure[innode_4] 81.01325
pressure[innode_5] 8.0964704700054412e+01
pressure[innode_6] 7.5386100665285241e+01
pressure[innode_7] 81.01325
pressure[innode_8] 8.0463973560659241e+01
pressure[source_1] 81.01325
pressure[source_2] 81.01325
pressure[source_3] 81.01325
pressure[sink_1] 1.0132500000000002e+00
pressure[sink_2] 7.5874118300854718e+01
pressure[sink_3] 8.0463973560659241e+01
pressure[sink_4] 5.4584621604725719e+01
pressure[sink_5] 4.1735323127123792e+01
pressure[sink_6] 2.4189737554776611e+00
pressure[sink_7] 3.4298672935155290e+00
pressure[sink_8] 5.6505084884098885e+01
pressure[sink_9] 1.01325
pressure[sink_10] 7.6988934543468545e+01
pressure[sink_11] 76.837233235865
pressure[sink_12] 1.01325
pressure[sink_13] 75.3887771125558
pressure[sink_14] 7.5418913119734924e+01
pressure[sink_15] 7.5747406476887022e+01
pressure[sink_16] 7.5815583401047320e+01
pressure[sink_17] 4.9814694525146180e+01
pressure[sink_18] 1.5707987753679460e+00
pressure[sink_19] 7.9214917248748563e+01
pressure[sink_20] 5.7644740307687172e+01
pressure[sink_21] 1.01325
pressure[sink_22] 1.6095740926194448e+00
pressure[sink_23] 8.0299255548999454e+01
pressure[sink_24] 1.01325
pressure[sink_25] 7.5386100665285241e+01
pressure[sink_26] 6.7229678675879839e+01
pressure[sink_27] 8.0379061480489725e+01
pressure[sink_28] 7.6976251065013287e+01
pressure[sink_29] 7.7271533338630462e+01
interdiction[source_1,sink_3] 0
interdiction[innode_1,sink_16] 0
interdiction[innode_6,sink_13] 0
interdiction[sink_13,sink_14] 0
interdiction[sink_14,sink_10] 0
interdiction[sink_25,sink_26] 0
interdiction[sink_26,sink_9] 1
interdiction[sink_9,sink_18] 0
interdiction[sink_26,sink_4] 0
interdiction[sink_4,sink_20] 0
interdiction[sink_18,sink_6] 0
interdiction[sink_25,innode_8] 0
interdiction[sink_6,sink_7] 0
interdiction[sink_6,sink_22] 0
interdiction[sink_7,sink_24] 0
interdiction[sink_22,sink_1] 0
interdiction[sink_24,sink_21] 0
interdiction[sink_21,sink_12] 0
interdiction[sink_7,sink_5] 0
interdiction[sink_5,sink_17] 0
interdiction[sink_17,sink_4] 0
interdiction[sink_17,sink_8] 1
interdiction[sink_3,sink_23] 0
interdiction[sink_8,sink_20] 0
interdiction[sink_25,sink_20] 0
interdiction[sink_25,sink_15] 0
interdiction[sink_15,sink_29] 0
interdiction[sink_29,sink_28] 0
interdiction[sink_29,sink_2] 0
interdiction[sink_2,sink_15] 0
interdiction[sink_29,innode_7] 0
interdiction[innode_4,sink_19] 0
interdiction[sink_19,innode_3] 0
interdiction[innode_4,innode_5] 0
interdiction[sink_27,innode_5] 0
interdiction[sink_27,sink_19] 0
interdiction[sink_10,sink_11] 0
interdiction[sink_10,innode_2] 0
interdiction[sink_10,innode_3] 0
interdiction[innode_6,sink_25] 0
interdiction[sink_11,innode_1] 0
interdiction[sink_19,innode_2] 0
interdiction[source_3,innode_4] 0
interdiction[source_2,innode_7] 0
interdiction[sink_3,innode_8] 0
WCcheckFlow[source_1,sink_3] 39
WCcheckFlow[innode_1,sink_16] 1
WCcheckFlow[innode_6,sink_13] 13
WCcheckFlow[sink_13,sink_14] 12
WCcheckFlow[sink_14,sink_10] 11
WCcheckFlow[sink_25,sink_26] 15
WCcheckFlow[sink_26,sink_9] 0
WCcheckFlow[sink_9,sink_18] -1
WCcheckFlow[sink_26,sink_4] 14
WCcheckFlow[sink_4,sink_20] 2
WCcheckFlow[sink_18,sink_6] -2
WCcheckFlow[sink_25,innode_8] -36
WCcheckFlow[sink_6,sink_7] -5
WCcheckFlow[sink_6,sink_22] 2
WCcheckFlow[sink_7,sink_24] 3
WCcheckFlow[sink_22,sink_1] 1
WCcheckFlow[sink_24,sink_21] 2
WCcheckFlow[sink_21,sink_12] 1
WCcheckFlow[sink_7,sink_5] -9
WCcheckFlow[sink_5,sink_17] -10
WCcheckFlow[sink_17,sink_4] -11
WCcheckFlow[sink_17,sink_8] 0
WCcheckFlow[sink_3,sink_23] 1
WCcheckFlow[sink_8,sink_20] -1
WCcheckFlow[sink_25,sink_20] 0
WCcheckFlow[sink_25,sink_15] 6
WCcheckFlow[sink_15,sink_29] 5
WCcheckFlow[sink_29,sink_28] 1
WCcheckFlow[sink_29,sink_2] 1
WCcheckFlow[sink_2,sink_15] 0
WCcheckFlow[sink_29,innode_7] 2
WCcheckFlow[innode_4,sink_19] -4
WCcheckFlow[sink_19,innode_3] -5
WCcheckFlow[innode_4,innode_5] 2
WCcheckFlow[sink_27,innode_5] -1
WCcheckFlow[sink_27,sink_19] 0
WCcheckFlow[sink_10,sink_11] 3
WCcheckFlow[sink_10,innode_2] 1
WCcheckFlow[sink_10,innode_3] 6
WCcheckFlow[innode_6,sink_25] -14
WCcheckFlow[sink_11,innode_1] 2
WCcheckFlow[sink_19,innode_2] 0
WCcheckFlow[source_3,innode_4] -1
WCcheckFlow[source_2,innode_7] -1
WCcheckFlow[sink_3,innode_8] 37
